
  22   10
  10   10   10   10   10   10   10   10   10   10

   0   0   0   0   0   0   0   0   0   0   0   1 2 
   9   0   0   0   0   0   0  10   0   0   0   1 3 
   9   0  10   0   0   0   0   0   0   0   0   1 4 
   7   0   0   0  10   0   0   0   0   0   0   1 5 
   1   0   0   0   0   0   0   0   0  10   0   2 12 6 
   3   0  10   0   0   0   0   0   0   0   0   1 7 
   7   0   0   0   0   0   0   0  10   0   0   2 21 8 
   7   0   0   0   0   0   0   0  10   0   0   1 9 
   6   0   0  10   0   0   0   0   0   0   0   1 10 
   7   0  10   0   0   0   0   0   0   0   0   1 11 
   7   0   0   0   0   0   0   0   0   0  10   1 13 
   9   0   0   0   0   0   0  10   0   0   0   2 21 15 
   3   0   0  10   0   0   0   0   0   0   0   1 14 
   3   0   0   0   0   0  10   0   0   0   0   1 15 
   3   0   0   0   0  10   0   0   0   0   0   1 16 
   7  10   0   0   0   0   0   0   0   0   0   1 17 
   8   0   0   0   0   0  10   0   0   0   0   1 18 
  10   0   0   0   0   0   0   0   0  10   0   1 19 
  10   0   0   0   0   0   0   0  10   0   0   1 20 
   9  10   0   0   0   0   0   0   0   0   0   1 22
   3   0  10   0   0   0   0   0   0   0   0   1 22
   0   0   0   0   0   0   0   0   0   0   0   0 
